(set-option :print-success true)
(set-option :produce-assignments true)
;(set-option :produce-proofs true)
(set-logic QF_SAT)
(assert (not false))
(check-sat)
;(set-option :print-success true)
;(set-option :produce-assignments true)
;(set-logic QF_SAT)
(get-abduct A false)
